56 698
2 3 6 7 9 11 13 14 18 19 21 22 24 25 26 30 31 35 43 45 50 53 54 55
2 4 12 15 18 23 24 25 29 32 33 34 38 39 41 42 47 49 50 53 54 55
0 1 5 7 9 11 12 13 14 16 17 18 22 25 26 27 28 31 33 34 35 36 37 46 47 48 50 51 53 55
0 4 5 8 9 12 13 17 23 26 27 29 30 32 33 35 36 37 38 39 40 42 43 44 47 48 49 50 53 54
1 3 6 8 18 21 23 24 25 26 28 30 31 33 34 36 38 39 40 43 45 46 47 52 53 54 55
2 3 6 7 11 12 13 14 28 31 33 34 38 39 40 41 46 47 48 50
0 4 5 7 8 9 11 14 16 18 20 21 22 23 25 27 28 31 33 34 36 37 39 42 43 44 47 48 49 52 53
0 2 5 6 8 9 10 11 13 16 17 20 26 27 29 32 33 35 36 38 51 55
3 4 6 7 9 10 12 14 15 16 18 24 26 28 37 39 42 44 48 52 53 55
0 2 3 6 7 8 10 11 13 14 15 16 17 18 19 20 25 26 29 30 34 36 38 41 44 49 50 51 52 53 55
7 8 9 11 15 16 18 19 21 22 24 25 26 28 29 31 35 39 40 43 46 47 50 51 53
0 2 5 6 7 9 10 12 13 15 16 18 19 20 21 22 23 24 26 27 30 32 34 35 39 40 41 43 44 45 47 50 51
1 2 3 5 8 11 16 17 19 20 23 27 30 31 36 39 41 43 44 49 50 52 53
0 2 3 5 7 9 11 15 27 31 32 35 36 38 39 40 41 42 44 46 49 50 51 52 55
0 2 5 6 8 9 15 21 24 25 26 27 31 32 33 34 37 41 42 44 45 48 49 52 54
1 8 9 10 11 13 14 17 19 20 24 25 26 28 29 30 31 34 38 39 42 43 45 46 50 52
2 6 7 8 9 10 11 12 17 18 22 23 27 29 30 32 33 34 37 39 40 44 45
2 3 7 9 12 15 16 20 21 25 28 30 32 33 39 41 42 48 49 54
0 1 2 4 6 8 9 10 11 16 19 20 21 22 23 25 26 29 32 34 39 43 44 53 55
0 9 10 11 12 15 18 20 22 23 25 27 28 30 38 40 41 43 48 49 50 51 53 54
6 7 9 11 12 15 17 18 19 21 22 27 28 29 33 39 40 41 43 48 50 51 52 54 55
0 4 6 10 11 14 17 18 20 24 25 26 32 34 35 36 37 38 39 42 43 48 52
0 2 6 10 11 16 18 19 20 23 24 30 33 34 36 45 46 48 50 51 53 54
1 3 4 6 11 12 16 18 19 22 25 26 27 28 33 35 36 37 38 42 44 45 46 49 54 55
0 1 4 8 10 11 14 15 21 22 25 26 29 30 33 35 36 37 40 43 44 47 48 50 54
0 1 2 4 6 9 10 14 15 17 18 19 21 23 24 26 30 32 34 36 37 39 40 43 44 48 49 50 51 52 54 55
0 2 3 4 7 8 9 10 11 14 15 18 21 23 24 25 27 29 31 33 34 35 38 39 43 45 46 50 51 53 55
2 3 6 7 11 12 13 14 16 19 20 23 26 33 34 35 36 44 45 47 50 52 53
2 4 5 6 8 10 15 17 19 20 23 29 36 38 41 43 47 48 51 52 53 54
1 3 7 9 10 15 16 18 20 24 26 28 31 34 36 38 39 47 48 51 53 54
0 3 4 9 11 12 15 16 17 19 22 24 25 33 37 38 41 42 43 46 47 55
0 2 4 5 6 10 12 13 14 15 26 29 33 34 37 39 41 43 46 48 50 51
1 3 7 11 13 14 16 17 18 21 25 34 37 40 41 42 43 44 45 46 47 48 50 51 52 53 55
1 2 3 4 5 6 7 14 16 17 20 22 23 24 26 27 30 31 35 40 41 42 44 45 48 54
1 2 4 5 6 9 11 14 15 16 18 21 22 25 26 27 29 31 32 36 42 43 46 48 52 53
0 2 3 7 10 11 13 21 23 24 26 27 33 36 38 41 44 45 52 55
2 3 4 6 7 9 12 13 21 22 23 24 25 27 28 29 34 35 38 42 50 52 54
2 3 6 8 14 16 21 23 24 25 30 31 32 38 39 40 43 47 48 49 50 51 52 55
1 3 4 5 7 9 13 15 19 21 23 26 28 29 30 35 36 37 40 45 46 47 48 49 52 53 54 55
1 3 4 5 6 8 10 11 12 13 15 16 17 18 20 21 25 26 29 31 37 48 49 50 53 55
3 4 5 10 11 13 16 19 20 24 25 32 33 37 38 43 44 49 50
1 5 9 11 12 13 14 17 19 20 28 30 31 32 33 35 42 43 44 45 46 49 50 55
1 3 6 8 13 14 15 17 21 23 30 32 33 34 36 41 43 45 46 49 54
0 3 4 6 10 11 12 15 18 19 20 21 24 25 26 28 30 31 32 34 37 40 41 42 47 48 49 51 52 54
3 6 8 9 11 12 13 14 16 18 23 24 25 27 32 33 35 40 41 47 48 50 51 52 53 54
0 4 11 14 15 16 22 23 26 27 32 33 35 38 41 42 49 50 51 52 53 54 55
2 4 5 10 13 15 22 23 26 30 31 32 34 38 41 42 49 50 51 53
1 2 3 4 5 6 10 11 24 27 28 29 30 32 37 38 43 44 49 52 53 54
2 3 5 6 8 14 17 19 20 21 22 24 25 28 29 31 32 33 34 37 38 39 43 44 49 51 52 53 55
1 3 6 9 12 13 14 17 19 23 25 37 38 39 40 41 42 43 45 46 47 48 54 55
0 1 2 3 5 9 10 11 12 13 15 19 20 22 24 25 26 27 31 32 36 37 39 40 41 44 45 46 53 55
2 7 9 10 11 13 19 20 22 25 26 28 29 31 32 37 43 44 45 46 48
4 6 8 9 12 13 14 15 20 21 25 27 28 32 34 35 36 37 38 43 44 45 47 48 54
0 1 2 3 4 6 8 9 10 12 18 19 22 26 27 28 29 32 34 38 39 44 45 46 47 48 50 54
0 1 3 4 14 17 19 20 22 23 24 25 28 29 33 36 38 42 43 44 45 47 49 52 53 55
0 1 2 4 7 8 9 13 18 20 23 25 26 30 32 35 37 38 39 41 45 48 49 50 54
